120
150
50
30
93
74
48
57
78
22
22
92
23
50
80
31
30
72
93
94
45
31
28
63
83
77
57
56
85
22
53
97
31
63
53
25
27
38
20
95
45
98
40
32
48
45
81
28
85
58
37
89
49
34
22
35
73
48
90
63
98
40
32
62
22
29
25
98
58
25
63
80
97
97
50
20
39
83
53
36
78
29
45
87
27
79
36
74
80
63
31
36
76
36
89
70
58
22
50
35
68
82
85
98
32
98
97
20
48
72
28
37
50
53
66
50
29
60
61
40
81
29
